(set-logic QF_SLIA)
(declare-const key String)
(declare-const val String)
(assert (str.in_re key (re.+ (re.range "[" "]"))))
(assert (<= 12 (str.len key)))
(assert (>= 10 (str.to_int key)))
(check-sat)
